WARNING: for repeatability, setting FPU to use double precision
============================[ Problem Statistics ]=============================
|                                                                             |
|  Number of variables:          5600                                         |
|  Number of clauses:           16661                                         |
|  Parse time:                   0.00 s                                       |
|                                                                             |
c ============================[ Search Statistics ]==============================
c | Conflicts |          ORIGINAL         |          LEARNT          | Progress |
c |           |    Vars  Clauses Literals |    Limit  Clauses Lit/Cl |          |
c ===============================================================================
c Switched to VSIDS.
c ===============================================================================
restarts                  : 312
conflicts                 : 137526         (3074 /sec)
decisions                 : 600848         (0.00 % random) (13431 /sec)
propagations              : 63277918       (1414437 /sec)
conflict literals         : 7567314        (25.65 % deleted)

conflicts w/ DIP found    : 122747         (89.25 % of conflicts)
conflicts w/ dangerous DIP: 0              (0.00 % of conflicts)
conflicts w/ DIP-learning : 19             (0.01 % of conflicts)
decisions on ext vars     : 1168           (0.19 % of decisions)
total ext vars            : 12          
tried delete ext vars     : 0           
deleted ext vars          : 0           
max ext vars              : 12          

Memory used               : 44.00 MB
CPU time                  : 44.7372 s
DIP computation time      : 1.35503 s (3.03 % of total time)
ER_sel time               : 0.149801 s
ER_add time               : 8.1e-05 s
ER_delC time              : 0 s
ER_delV time              : 0 s
ER_sub time               : 0.201515 s
ER_stat time              : 0 s

UNSATISFIABLE
